! HF 6-31G
%maxcore 1200
%pal nprocs 8 end
* xyz 0 1
C    0.08215600   0.01958200  -0.05478200
H    1.14973500  -0.03725200  -0.23950300
C    2.47069800   0.03225700   1.39579500
C    1.94596800  -1.10868800   1.85501400
C    0.56334700  -1.58870100   1.75250800
C   -0.25434400  -1.16755800   0.78295000
H   -0.45913200   0.06338500  -0.98337400
H   -0.04675900   0.96102000   0.47078700
H    1.91464500   0.93748000   1.27315100
H    3.49624500   0.08207300   1.08396800
H    2.63358400  -1.87105200   2.17152500
H    0.31708800  -2.48293800   2.29831700
H   -1.09745700  -1.77165500   0.49403400
*
