! HF 6-31G
%maxcore 1200
%pal nprocs 8 end
* xyz 0 1
C   -0.46566200   0.00351400   0.02895400
H    2.18249000   0.01735600   0.02684500
C    2.49726500   0.01008300   1.06280500
C    1.85499300  -1.11695800   1.81999800
C    0.63288900  -1.60749000   1.61874700
C   -0.33216800  -1.19558300   0.58773600
H   -1.17693800   0.17196300  -0.75616500
H    0.11096800   0.85423800   0.33020400
H    2.22153700   0.97102800   1.48965400
H    3.57676400  -0.05843400   1.09228100
H    2.45531700  -1.56928400   2.59026400
H    0.31595200  -2.43205000   2.23422300
H   -0.99146100  -1.98025600   0.25732300
*
