! HF 6-31G
%maxcore 1200
%pal nprocs 8 end
* xyz 0 1
C   -0.46019200   0.00430100   0.02896600
H    2.17401200   0.01662400   0.02770700
C    2.49240200   0.01032800   1.06135200
C    1.85544200  -1.11980300   1.82042900
C    0.63216400  -1.60807500   1.62340800
C   -0.33171100  -1.19345900   0.59089200
H   -1.16521300   0.17163600  -0.76165700
H    0.11556100   0.85520200   0.33162600
H    2.21307200   0.96946400   1.49027300
H    3.57215600  -0.05346800   1.08799000
H    2.46008600  -1.57461900   2.58507900
H    0.31498600  -2.43217500   2.23758800
H   -0.99081900  -1.97783100   0.25921600
*
