! HF 6-31G
%maxcore 1200
%pal nprocs 8 end
* xyz 0 1
C    0.09403300   0.01483200  -0.03939900
H    1.23899700  -0.04687100  -0.08408900
C    2.40763000   0.00890600   1.26815000
C    1.91372800  -1.10819200   1.83259500
C    0.55025000  -1.58433400   1.75829100
C   -0.26364600  -1.15730500   0.78365500
H   -0.47482800   0.06793800  -0.96623500
H    0.01519900   0.97015900   0.47140000
H    1.91773900   0.96274200   1.32856900
H    3.43747600   0.06507600   0.98975800
H    2.61382000  -1.82675000   2.22099600
H    0.31834700  -2.48924900   2.28871200
H   -1.05297100  -1.80899900   0.44798900
*
