! HF 6-31G
%maxcore 1200
%pal nprocs 8 end
* xyz 0 1
C   -0.01827400   0.01038700  -0.18611100
H    0.99874600   0.01885300  -0.55948400
C    2.59190500   0.00451400   1.54626600
C    2.06353900  -1.19145400   1.78550100
C    0.66174800  -1.60826700   1.63424700
C   -0.23385700  -1.12123400   0.77772700
H   -0.69216200  -0.05121000  -1.02862400
H   -0.18976700   0.96899200   0.29851600
H    2.00617000   0.85420600   1.25983400
H    3.64737200   0.17220500   1.63974800
H    2.72539600  -1.97408700   2.12087200
H    0.36316700  -2.43532300   2.25636500
H   -1.20821000  -1.57962900   0.75553500
*
