! HF 6-31G
%maxcore 1200
%pal nprocs 8 end
* xyz 0 1
C   -0.00458000   0.00666600  -0.01662400
H    1.44310600  -0.05015100   0.02647800
C    2.35261900   0.00764500   1.15260400
C    1.88605100  -1.12893700   1.84006400
C    0.57474400  -1.58248600   1.77020200
C   -0.27026000  -1.13503800   0.76221800
H   -0.49863700   0.07001500  -0.97270200
H    0.06412400   0.96735900   0.46349100
H    1.93594500   0.97387000   1.37780500
H    3.41423000   0.06222200   0.97239400
H    2.60897900  -1.81181600   2.25196000
H    0.31991600  -2.48851300   2.28650300
H   -1.02737800  -1.82279700   0.42723900
*
