! HF 6-31G
%maxcore 1200
%pal nprocs 8 end
* xyz 0 1
C   -0.00753600   0.01061900  -0.17512700
H    1.01313800   0.01692100  -0.53736300
C    2.58193400   0.00740400   1.53330200
C    2.05429300  -1.18599200   1.79078000
C    0.65323700  -1.60811900   1.64471800
C   -0.23561800  -1.12858600   0.77602200
H   -0.67319200  -0.03678100  -1.02584900
H   -0.17679100   0.96374700   0.31948600
H    1.99522600   0.85818500   1.25301500
H    3.63989500   0.16979400   1.60002300
H    2.71885100  -1.96617100   2.12195500
H    0.35636300  -2.43623600   2.26584700
H   -1.20402600  -1.59683100   0.73358200
*
