! HF 6-31G
%maxcore 1200
%pal nprocs 8 end
* xyz 0 1
C    0.05719500   0.01485100  -0.09755700
H    1.10739900  -0.00915300  -0.36305300
C    2.50966100   0.02799200   1.45129500
C    1.98161500  -1.13340300   1.84027500
C    0.59182200  -1.59388300   1.72485800
C   -0.24412800  -1.16261300   0.77653100
H   -0.52648800   0.04265000  -1.00341500
H   -0.09884500   0.94734100   0.43784900
H    1.93379200   0.90594500   1.24984100
H    3.56258100   0.11813500   1.26841100
H    2.66302300  -1.91065300   2.13568900
H    0.32176300  -2.46047500   2.30539500
H   -1.14361500  -1.71878100   0.57427200
*
