! HF 6-31G
%maxcore 1200
%pal nprocs 8 end
* xyz 0 1
C   -0.38800900   0.01740900   0.03284400
H    2.05107900   0.00563200   0.03920600
C    2.42653800   0.01112300   1.05488800
C    1.86100500  -1.14740600   1.82222800
C    0.61497900  -1.60225600   1.68477400
C   -0.32615900  -1.16383700   0.64408500
H   -0.98199500   0.15102800  -0.84956800
H    0.15435000   0.87929200   0.36080100
H    2.11198600   0.95206800   1.49865800
H    3.50573400   0.00427500   1.02322900
H    2.52416700  -1.65345500   2.50195000
H    0.30279300  -2.44116900   2.28317100
H   -0.97452200  -1.94457800   0.28660500
*
