! HF 6-31G
%maxcore 1200
%pal nprocs 8 end
* xyz 0 1
C   -0.17127100   0.01791300   0.01544100
H    1.70451100  -0.04655200   0.12800700
C    2.31014900   0.01788200   1.05378200
C    1.86773100  -1.15442100   1.84602900
C    0.59595300  -1.58696100   1.78197100
C   -0.28830100  -1.11620500   0.73458600
H   -0.54203700   0.07393100  -0.98274200
H    0.12727000   0.95148800   0.44085600
H    1.96581400   0.97419000   1.43406600
H    3.38622500   0.05973000   0.94757300
H    2.60664200  -1.79039400   2.29560100
H    0.31795300  -2.48830200   2.29094100
H   -0.99869500  -1.84417100   0.39676100
*
