! HF 6-31G
%maxcore 1200
%pal nprocs 8 end
* xyz 0 1
C   -0.47700500   0.00176600   0.02892200
H    2.19945400   0.01896000   0.02602200
C    2.50714000   0.00994800   1.06445900
C    1.85368400  -1.11183100   1.81966400
C    0.63463900  -1.60674900   1.61066300
C   -0.33331900  -1.19896900   0.58104200
H   -1.19973700   0.17197700  -0.74564200
H    0.10059700   0.85279300   0.32796300
H    2.23913700   0.97415200   1.48875700
H    3.58599600  -0.06888200   1.10060100
H    2.44556100  -1.55871000   2.59994400
H    0.31800700  -2.43089300   2.22728400
H   -0.99220800  -1.98543500   0.25319000
*
