! HF 6-31G
%maxcore 1200
%pal nprocs 8 end
* xyz 0 1
C   -0.37321900   0.02114300   0.03383600
H    2.02408300   0.00200400   0.04341200
C    2.41260400   0.01189300   1.05411900
C    1.86109600  -1.15171900   1.82338600
C    0.61109400  -1.60000900   1.69835800
C   -0.32596200  -1.15732800   0.65688300
H   -0.93742300   0.14349000  -0.86870600
H    0.15897300   0.88587800   0.36794100
H    2.09327700   0.95045000   1.49950500
H    3.49087400   0.01466200   1.00873900
H    2.53602900  -1.67004400   2.48171700
H    0.30174200  -2.44517000   2.28964900
H   -0.97122100  -1.93712200   0.29403200
*
