! HF 6-31G
%maxcore 1200
%pal nprocs 8 end
* xyz 0 1
C    0.00792000   0.01072600  -0.15894000
H    1.03505200   0.01379900  -0.50222800
C    2.56641800   0.01179700   1.51432200
C    2.03909500  -1.17587700   1.79953800
C    0.63966300  -1.60643800   1.66161800
C   -0.23745600  -1.13899200   0.77435800
H   -0.64275900  -0.01640200  -1.02130100
H   -0.15861100   0.95667900   0.34986300
H    1.97963400   0.86615800   1.24713500
H    3.62790200   0.16323200   1.53474600
H    2.70826900  -1.95469100   2.12274300
H    0.34605200  -2.43794000   2.27975000
H   -1.19540400  -1.62409700   0.69878600
*
