! HF 6-31G
%maxcore 1200
%pal nprocs 8 end
* xyz 0 1
C   -0.40336200   0.01448700   0.03159500
H    2.07845200   0.00869600   0.03555900
C    2.44085400   0.01056500   1.05599700
C    1.86050600  -1.14236600   1.82143700
C    0.61898000  -1.60419700   1.67080600
C   -0.32670700  -1.17106500   0.63170000
H   -1.02568800   0.15774200  -0.82967900
H    0.14854700   0.87281600   0.35358600
H    2.13209400   0.95463400   1.49727900
H    3.52073600  -0.00699800   1.03785800
H    2.51125800  -1.63615300   2.52197200
H    0.30450100  -2.43806900   2.27504700
H   -0.97822500  -1.95196500   0.27971100
*
