! HF 6-31G
%maxcore 1200
%pal nprocs 8 end
* xyz 0 1
C   -0.01501700   0.01087300  -0.18273100
H    1.00192200   0.01837800  -0.55433300
C    2.58922200   0.00519400   1.54311900
C    2.06259000  -1.19077800   1.78706800
C    0.65931300  -1.60840600   1.63667000
C   -0.23467400  -1.12307400   0.77707800
H   -0.68815900  -0.04779000  -1.02842600
H   -0.18658600   0.96742100   0.30333500
H    2.00357500   0.85508700   1.25794700
H    3.64569500   0.17175300   1.63064200
H    2.72338300  -1.97165900   2.12099900
H    0.36165300  -2.43547400   2.25852700
H   -1.20714300  -1.58357000   0.75049600
*
