! HF 6-31G
%maxcore 1200
%pal nprocs 8 end
* xyz 0 1
C    0.06479500   0.01675400  -0.08747800
H    1.11746000  -0.01600900  -0.33622400
C    2.50066600   0.03030600   1.44033300
C    1.97314400  -1.12580000   1.84736700
C    0.58284900  -1.59287100   1.73422100
C   -0.24681200  -1.16603400   0.77889100
H   -0.50668100   0.04994000  -0.99961600
H   -0.08823600   0.94946400   0.44906900
H    1.92792600   0.91360400   1.25303700
H    3.54676400   0.10868200   1.22088400
H    2.65516900  -1.90215900   2.14155500
H    0.32054300  -2.46572800   2.30429000
H   -1.13181300  -1.73219300   0.55406100
*
