! HF 6-31G
%maxcore 1200
%pal nprocs 8 end
* xyz 0 1
C    0.09407500   0.01845000  -0.04385300
H    1.18065000  -0.04432500  -0.15935200
C    2.44329400   0.02303500   1.34116200
C    1.92844400  -1.10652500   1.84309400
C    0.55296000  -1.58673700   1.75690300
C   -0.25855800  -1.16409400   0.78281900
H   -0.45513500   0.06634800  -0.96915800
H   -0.01263200   0.96607800   0.47201500
H    1.91276300   0.95175000   1.29937400
H    3.46403000   0.07028300   1.02069400
H    2.62133500  -1.84547000   2.19827700
H    0.31683300  -2.48822000   2.29305700
H   -1.07228600  -1.79261900   0.46535900
*
