! HF 6-31G
%maxcore 1200
%pal nprocs 8 end
* xyz 0 1
C   -0.47017300   0.00282700   0.02889800
H    2.18932800   0.01797000   0.02653400
C    2.50118900   0.01005800   1.06338300
C    1.85446900  -1.11496200   1.81990900
C    0.63364400  -1.60729500   1.61551900
C   -0.33266000  -1.19697900   0.58501900
H   -1.18613100   0.17206400  -0.75183000
H    0.10703400   0.85357700   0.32920700
H    2.22845500   0.97229900   1.48925500
H    3.58045900  -0.06252600   1.09568000
H    2.45138700  -1.56500200   2.59418400
H    0.31681200  -2.43161800   2.23137200
H   -0.99186800  -1.98228600   0.25574000
*
