! HF 6-31G
%maxcore 1200
%pal nprocs 8 end
* xyz 0 1
C   -0.32361200   0.02894600   0.03888600
H    1.92984800  -0.01777800   0.06548400
C    2.36661600   0.01680300   1.05462800
C    1.85989700  -1.16129800   1.83135400
C    0.59952900  -1.59309000   1.74233700
C   -0.32741300  -1.13089600   0.69795500
H   -0.77537300   0.11337000  -0.92923500
H    0.16744300   0.91083700   0.39223800
H    2.03704400   0.95377200   1.49615500
H    3.43926500   0.04358100   0.96000200
H    2.57111500  -1.72125000   2.40997700
H    0.30424800  -2.46490400   2.29808300
H   -0.96666100  -1.90996600   0.32500500
*
