! HF 6-31G
%maxcore 1200
%pal nprocs 8 end
* xyz 0 1
C   -0.45196600   0.00569100   0.02921800
H    2.16094800   0.01560000   0.02817600
C    2.48517200   0.01017000   1.06084200
C    1.85645600  -1.12313800   1.82034500
C    0.63046700  -1.60775400   1.62935700
C   -0.33074100  -1.19087300   0.59629500
H   -1.14741500   0.17081100  -0.77044800
H    0.12170000   0.85694200   0.33404000
H    2.20083800   0.96705700   1.49119400
H    3.56520300  -0.04631600   1.08130200
H    2.46753200  -1.58293300   2.57735300
H    0.31321900  -2.43298700   2.24326200
H   -0.98946700  -1.97414400   0.26193300
*
