! HF 6-31G
%maxcore 1200
%pal nprocs 8 end
* xyz 0 1
C   -0.00476600   0.01068500  -0.17229200
H    1.01679700   0.01642700  -0.53155900
C    2.57904100   0.00822800   1.52999700
C    2.05213300  -1.18451000   1.79225600
C    0.65087000  -1.60799700   1.64752000
C   -0.23607000  -1.13041900   0.77561300
H   -0.66823100  -0.03323300  -1.02516900
H   -0.17362100   0.96243300   0.32471500
H    1.99260200   0.85929700   1.25172200
H    3.63810100   0.16892300   1.58943400
H    2.71702000  -1.96411500   2.12207500
H    0.35462500  -2.43642700   2.26824800
H   -1.20272800  -1.60133800   0.72782900
*
