! HF 6-31G
%maxcore 1200
%pal nprocs 8 end
* xyz 0 1
C   -0.01847600   0.01063700  -0.18625000
H    0.99778600   0.01896300  -0.56073500
C    2.59239200   0.00429800   1.54703400
C    2.06473200  -1.19206300   1.78541600
C    0.66199000  -1.60829900   1.63369400
C   -0.23399500  -1.12083100   0.77767800
H   -0.69348500  -0.05213600  -1.02909000
H   -0.19055200   0.96909200   0.29713700
H    2.00681200   0.85410400   1.26032100
H    3.64780800   0.17226300   1.64196200
H    2.72546600  -1.97423800   2.12062500
H    0.36359200  -2.43520500   2.25579500
H   -1.20829700  -1.57863000   0.75680400
*
