! HF 6-31G
%maxcore 1200
%pal nprocs 8 end
* xyz 0 1
C    0.02712700   0.01142300  -0.13747900
H    1.06267700   0.00836100  -0.45441200
C    2.54610200   0.01766000   1.49076600
C    2.01845000  -1.16121500   1.81281800
C    0.62174100  -1.60266800   1.68468200
C   -0.23947400  -1.15038500   0.77361800
H   -0.60167800   0.00751000  -1.01509900
H   -0.13657900   0.94985900   0.38578500
H    1.96111100   0.87909900   1.24482600
H    3.60905300   0.15021500   1.44306700
H    2.69292800  -1.93957000   2.12446900
H    0.33425500  -2.44251100   2.29440500
H   -1.17993900  -1.65982400   0.65294600
*
