! HF 6-31G
%maxcore 1200
%pal nprocs 8 end
* xyz 0 1
C   -0.00229500   0.01062700  -0.16971600
H    1.02053300   0.01592800  -0.52574900
C    2.57682100   0.00885300   1.52685200
C    2.04921200  -1.18273900   1.79356700
C    0.64878800  -1.60771900   1.65028600
C   -0.23630500  -1.13219900   0.77535200
H   -0.66311800  -0.02973200  -1.02433500
H   -0.17051900   0.96124800   0.32992700
H    1.98983900   0.86064000   1.25051800
H    3.63599000   0.16796400   1.57871000
H    2.71544300  -1.96232200   2.12227700
H    0.35284600  -2.43671000   2.27066900
H   -1.20146000  -1.60588500   0.72203200
*
