! HF 6-31G
%maxcore 1200
%pal nprocs 8 end
* xyz 0 1
C    0.00545600   0.01068900  -0.16157500
H    1.03144900   0.01435900  -0.50812800
C    2.56895100   0.01118300   1.51736200
C    2.04166400  -1.17773800   1.79803700
C    0.64206500  -1.60690500   1.65893300
C   -0.23738100  -1.13729500   0.77439400
H   -0.64787900  -0.01964500  -1.02208000
H   -0.16151500   0.95774600   0.34500100
H    1.98215500   0.86466400   1.24782100
H    3.63001400   0.16453400   1.54586900
H    2.71005600  -1.95655300   2.12261000
H    0.34771800  -2.43754800   2.27754500
H   -1.19697900  -1.61953500   0.70460100
*
