! HF 6-31G
%maxcore 1200
%pal nprocs 8 end
* xyz 0 1
C   -0.44769200   0.00631400   0.02943600
H    2.15400900   0.01507200   0.02830600
C    2.48145600   0.01000400   1.06088400
C    1.85687400  -1.12468600   1.82009300
C    0.62951400  -1.60735700   1.63236200
C   -0.33009400  -1.18935500   0.59928600
H   -1.13794400   0.17024300  -0.77523700
H    0.12466800   0.85798600   0.33542400
H    2.19458600   0.96580000   1.49168600
H    3.56152100  -0.04267100   1.07772500
H    2.47151900  -1.58740600   2.57328000
H    0.31225500  -2.43351100   2.24633000
H   -0.98872600  -1.97230800   0.26329500
*
