! HF 6-31G
%maxcore 1200
%pal nprocs 8 end
* xyz 0 1
C   -0.39181100   0.01640900   0.03264300
H    2.05791800   0.00645000   0.03821100
C    2.43015800   0.01097000   1.05516600
C    1.86057700  -1.14628100   1.82192300
C    0.61630800  -1.60264800   1.68133000
C   -0.32630100  -1.16543100   0.64082000
H   -0.99310300   0.15281200  -0.84465400
H    0.15303300   0.87768600   0.35899700
H    2.11690700   0.95262500   1.49835700
H    3.50948900   0.00153300   1.02689300
H    2.52107100  -1.64919200   2.50706000
H    0.30313500  -2.44035200   2.28131000
H   -0.97543600  -1.94645400   0.28481200
*
