! HF 6-31G
%maxcore 1200
%pal nprocs 8 end
* xyz 0 1
C   -0.09036400   0.00699800  -0.00012500
H    1.60308100  -0.04835800   0.10212000
C    2.32123800   0.01403100   1.08338700
C    1.87252800  -1.14592400   1.84880600
C    0.59207400  -1.58436400   1.78019100
C   -0.27580700  -1.12049500   0.74266900
H   -0.51445100   0.07128600  -0.97752400
H    0.10251400   0.96009800   0.45207400
H    1.95266600   0.97697600   1.41320800
H    3.40198700   0.06093900   0.96309800
H    2.60775700  -1.80278700   2.27530600
H    0.31970400  -2.48867500   2.28799200
H   -1.01098000  -1.83160000   0.41166700
*
