! HF 6-31G
%maxcore 1200
%pal nprocs 8 end
* xyz 0 1
C    0.09961700   0.01718700  -0.04258300
H    1.20357400  -0.04576700  -0.11982000
C    2.42757100   0.01914600   1.30475300
C    1.91942200  -1.11004400   1.83800500
C    0.55277900  -1.58688600   1.76066000
C   -0.26338700  -1.16032000   0.78045500
H   -0.46310400   0.06704200  -0.96520800
H    0.00233900   0.96793700   0.47156100
H    1.91502600   0.95675600   1.31419400
H    3.44902900   0.06688600   1.00200100
H    2.61643700  -1.83429000   2.21018600
H    0.31767700  -2.48848600   2.29028700
H   -1.06120700  -1.80120800   0.45589700
*
