! HF 6-31G
%maxcore 1200
%pal nprocs 8 end
* xyz 0 1
C   -0.05563200   0.01026500  -0.00869600
H    1.55851800  -0.04906900   0.08300900
C    2.33127600   0.00911500   1.10859900
C    1.88116900  -1.13726000   1.84681800
C    0.58192500  -1.58418400   1.77564500
C   -0.27147600  -1.12912100   0.75198800
H   -0.50608600   0.07053200  -0.97442000
H    0.09251200   0.96100400   0.45502100
H    1.94767200   0.97812400   1.40487600
H    3.40877200   0.06140600   0.96776000
H    2.60818200  -1.80679000   2.26844000
H    0.32019500  -2.48840900   2.28711700
H   -1.01508100  -1.82748600   0.41671400
*
