! HF 6-31G
%maxcore 1200
%pal nprocs 8 end
* xyz 0 1
C   -0.24352100   0.02914100   0.03043600
H    1.79370500  -0.04295100   0.11126500
C    2.32071600   0.01987700   1.06002000
C    1.86372900  -1.16094200   1.84262900
C    0.59573200  -1.58888500   1.77483400
C   -0.30859000  -1.11401400   0.72885200
H   -0.59674600   0.08169800  -0.97933600
H    0.15163700   0.94015000   0.42474500
H    1.98401400   0.97014900   1.46121500
H    3.38857300   0.05808000   0.93270600
H    2.60281700  -1.77143400   2.32716900
H    0.31437300  -2.48547300   2.29505500
H   -0.98449300  -1.86727000   0.37328100
*
