! HF 6-31G
%maxcore 1200
%pal nprocs 8 end
* xyz 0 1
C    0.00125400   0.00800700  -0.01804100
H    1.37783900  -0.05009000  -0.00580100
C    2.35501500   0.00632200   1.15811400
C    1.88831500  -1.12638400   1.83834700
C    0.57185500  -1.58249200   1.76876300
C   -0.27025400  -1.13759500   0.76506000
H   -0.49631800   0.06956600  -0.97276900
H    0.04750600   0.96905200   0.46715400
H    1.92885100   0.97209900   1.36216200
H    3.41563700   0.06270900   0.97450200
H    2.61007100  -1.81505400   2.24350200
H    0.31948200  -2.48854400   2.28622800
H   -1.03347800  -1.81964300   0.43317000
*
