! HF 6-31G
%maxcore 1200
%pal nprocs 8 end
* xyz 0 1
C    0.04361300   0.00820800  -0.02622500
H    1.32768000  -0.04880600  -0.03116400
C    2.37721600   0.01142600   1.19828300
C    1.89499300  -1.12301200   1.83498000
C    0.56632700  -1.58421200   1.76799400
C   -0.27260200  -1.14330300   0.77000600
H   -0.49203000   0.06902500  -0.97098000
H    0.03582000   0.97171300   0.46967500
H    1.92518900   0.96699600   1.35020600
H    3.42040200   0.06302300   0.97766800
H    2.61011300  -1.81690800   2.23548600
H    0.31929100  -2.48851600   2.28646100
H   -1.04023700  -1.81768000   0.43800100
*
