! HF 6-31G
%maxcore 1200
%pal nprocs 8 end
* xyz 0 1
C    0.07048100   0.01765300  -0.07528300
H    1.12811600  -0.02363500  -0.30727500
C    2.49070100   0.03199500   1.42865700
C    1.96320800  -1.11881900   1.85280300
C    0.57662800  -1.59018800   1.74187400
C   -0.24822200  -1.16605900   0.78032700
H   -0.48773600   0.05600800  -0.99550000
H   -0.07627900   0.95257600   0.45866400
H    1.92277200   0.92146600   1.25751600
H    3.53053200   0.09933100   1.17278700
H    2.64785900  -1.89311800   2.14946900
H    0.31912800  -2.47282400   2.30329100
H   -1.12141400  -1.74643300   0.53306200
*
