! HF 6-31G
%maxcore 1200
%pal nprocs 8 end
* xyz 0 1
C   -0.46339200   0.00385200   0.02902900
H    2.17901800   0.01705800   0.02688300
C    2.49534200   0.01002800   1.06275300
C    1.85524900  -1.11781400   1.81989100
C    0.63242700  -1.60746300   1.62024200
C   -0.33179300  -1.19484200   0.58921500
H   -1.17234100   0.17187900  -0.75842400
H    0.11283400   0.85459900   0.33074500
H    2.21813800   0.97037400   1.48985500
H    3.57489900  -0.05642300   1.09054100
H    2.45734600  -1.57148200   2.58835000
H    0.31548100  -2.43232900   2.23573100
H   -0.99126200  -1.97931300   0.25805900
*
