! HF 6-31G
%maxcore 1200
%pal nprocs 8 end
* xyz 0 1
C    0.01044500   0.01076100  -0.15621600
H    1.03860300   0.01322300  -0.49630700
C    2.56388600   0.01265500   1.51124400
C    2.03647200  -1.17421300   1.80112200
C    0.63758500  -1.60615000   1.66468900
C   -0.23794600  -1.14050000   0.77396800
H   -0.63765400  -0.01322900  -1.02054200
H   -0.15574700   0.95564300   0.35463800
H    1.97719700   0.86762900   1.24656900
H    3.62575100   0.16184100   1.52352800
H    2.70640400  -1.95278500   2.12286500
H    0.34443400  -2.43830600   2.28183600
H   -1.19365500  -1.62861600   0.69299600
*
