! HF 6-31G
%maxcore 1200
%pal nprocs 8 end
* xyz 0 1
C    0.05066600   0.01391100  -0.10936100
H    1.09555900  -0.00297000  -0.38877400
C    2.52020500   0.02573400   1.46154600
C    1.99150500  -1.14067700   1.83271300
C    0.59831900  -1.59754900   1.71487700
C   -0.24339500  -1.16173100   0.77575100
H   -0.54695500   0.03425800  -1.00670800
H   -0.10922400   0.94680000   0.42555700
H    1.94029900   0.89827100   1.24752300
H    3.57659300   0.12754900   1.31675200
H    2.67135200  -1.91907100   2.13117900
H    0.32421100  -2.45338200   2.30393400
H   -1.15336100  -1.70318800   0.59540200
*
