! HF 6-31G
%maxcore 1200
%pal nprocs 8 end
* xyz 0 1
C    0.02485200   0.01127300  -0.14012100
H    1.05932400   0.00916100  -0.46045400
C    2.54870200   0.01708300   1.49357900
C    2.02092300  -1.16323700   1.81108600
C    0.62422000  -1.60334000   1.68207000
C   -0.23951700  -1.14902200   0.77334300
H   -0.60684400   0.00469100  -1.01588800
H   -0.13924400   0.95052400   0.38157400
H    1.96330300   0.87735300   1.24487400
H    3.61161700   0.15206000   1.45474900
H    2.69490000  -1.94146000   2.12413600
H    0.33557100  -2.44171100   2.29283700
H   -1.18203100  -1.65542100   0.65860600
*
