! HF 6-31G
%maxcore 1200
%pal nprocs 8 end
* xyz 0 1
C   -0.00996500   0.01073500  -0.17762400
H    1.00934200   0.01741000  -0.54311500
C    2.58419200   0.00674000   1.53653300
C    2.05730400  -1.18773200   1.78955600
C    0.65523400  -1.60830600   1.64199300
C   -0.23538100  -1.12675900   0.77632200
H   -0.67830200  -0.04042600  -1.02674500
H   -0.18001800   0.96494700   0.31409900
H    1.99805500   0.85700700   1.25451800
H    3.64194300   0.17055500   1.61049300
H    2.72032700  -1.96793400   2.12166100
H    0.35816400  -2.43596200   2.26336900
H   -1.20512100  -1.59232100   0.73933000
*
