! HF 6-31G
%maxcore 1200
%pal nprocs 8 end
* xyz 0 1
C   -0.01290400   0.01058200  -0.18061400
H    1.00572400   0.01790200  -0.54881500
C    2.58708000   0.00594200   1.53988800
C    2.05920800  -1.18902100   1.78807900
C    0.65762900  -1.60831000   1.63927000
C   -0.23481800  -1.12485900   0.77681300
H   -0.68308800  -0.04407300  -1.02733400
H   -0.18330700   0.96636100   0.30880100
H    2.00075900   0.85601000   1.25614700
H    3.64371500   0.17122900   1.62073700
H    2.72218800  -1.97011200   2.12149100
H    0.35988400  -2.43578700   2.26096200
H   -1.20629400  -1.58790900   0.74496600
*
