! HF 6-31G
%maxcore 1200
%pal nprocs 8 end
* xyz 0 1
C   -0.42312100   0.01066300   0.03038900
H    2.11278200   0.01184600   0.03177100
C    2.45912900   0.01016400   1.05792200
C    1.85904800  -1.13503700   1.82067600
C    0.62410300  -1.60605400   1.65323100
C   -0.32790300  -1.17962200   0.61657400
H   -1.07824800   0.16464700  -0.80459200
H    0.13941300   0.86543200   0.34486400
H    2.15910400   0.95905200   1.49494900
H    3.53937800  -0.02228900   1.05608900
H    2.49390300  -1.61405600   2.54618500
H    0.30752000  -2.43543800   2.26294000
H   -0.98316300  -1.96118100   0.27187200
*
