! HF 6-31G
%maxcore 1200
%pal nprocs 8 end
* xyz 0 1
C   -0.30827700   0.03069400   0.03989600
H    1.90023400  -0.02538300   0.07431400
C    2.35358400   0.01792900   1.05760800
C    1.85943200  -1.16102900   1.83339400
C    0.59696100  -1.59055400   1.75194900
C   -0.32599400  -1.12415400   0.70908800
H   -0.72696300   0.10449200  -0.94526300
H    0.16711400   0.91825500   0.39932400
H    2.02236600   0.95728400   1.49189300
H    3.42445700   0.04945300   0.94744400
H    2.58159400  -1.73545800   2.38928200
H    0.30609900  -2.47215800   2.29840200
H   -0.96866000  -1.90124500   0.33553900
*
