! HF 6-31G
%maxcore 1200
%pal nprocs 8 end
* xyz 0 1
C   -0.01041400   0.00532600  -0.01520700
H    1.50837300  -0.05021200   0.05875700
C    2.35022300   0.00896800   1.14709400
C    1.88378700  -1.13149100   1.84178100
C    0.57763300  -1.58248000   1.77164100
C   -0.27026600  -1.13248000   0.75937600
H   -0.50095500   0.07046300  -0.97263500
H    0.08074300   0.96566600   0.45982700
H    1.94304000   0.97564100   1.39344800
H    3.41282200   0.06173500   0.97028500
H    2.60788800  -1.80857800   2.26041800
H    0.32035000  -2.48848100   2.28677700
H   -1.02127700  -1.82595000   0.42130700
*
