! HF 6-31G
%maxcore 1200
%pal nprocs 8 end
* xyz 0 1
C   -0.43517600   0.00863200   0.02988100
H    2.13347600   0.01350100   0.03006500
C    2.47016100   0.01013600   1.05902300
C    1.85822900  -1.13018600   1.82059200
C    0.62686200  -1.60705900   1.64290000
C   -0.32910600  -1.18471700   0.60765400
H   -1.10860300   0.16783400  -0.78972800
H    0.13258800   0.86139800   0.33991000
H    2.17640400   0.96227600   1.49335700
H    3.55052000  -0.03219400   1.06698800
H    2.48275800  -1.60061900   2.55992700
H    0.30981800  -2.43423600   2.25473300
H   -0.98598400  -1.96664000   0.26756700
*
