! HF 6-31G
%maxcore 1200
%pal nprocs 8 end
* xyz 0 1
C   -0.45602100   0.00468300   0.02937300
H    2.16750400   0.01612000   0.02730300
C    2.48895900   0.00994200   1.06217500
C    1.85589200  -1.12092600   1.81980100
C    0.63124800  -1.60729400   1.62559100
C   -0.33098100  -1.19219300   0.59374100
H   -1.15680200   0.17135100  -0.76606700
H    0.11864300   0.85606500   0.33275300
H    2.20710500   0.96823900   1.49062900
H    3.56875000  -0.04994400   1.08469700
H    2.46396400  -1.57878500   2.58167200
H    0.31393200  -2.43306600   2.24070200
H   -0.99024600  -1.97606500   0.26049900
*
