! HF 6-31G
%maxcore 1200
%pal nprocs 8 end
* xyz 0 1
C    0.01286900   0.01082600  -0.15357600
H    1.04214300   0.01261800  -0.49037500
C    2.56131800   0.01326800   1.50826300
C    2.03394400  -1.17231300   1.80269000
C    0.63515000  -1.60562300   1.66737100
C   -0.23799000  -1.14211500   0.77400200
H   -0.63252600  -0.01010300  -1.01976400
H   -0.15292100   0.95466600   0.35933000
H    1.97476800   0.86919500   1.24608100
H    3.62355800   0.16038800   1.51224600
H    2.70455800  -1.95091600   2.12302000
H    0.34284200  -2.43878300   2.28389800
H   -1.19193800  -1.63315300   0.68720500
*
