! HF 6-31G
%maxcore 1200
%pal nprocs 8 end
* xyz 0 1
C   -0.01947300   0.01074100  -0.18724200
H    0.99599500   0.01920400  -0.56328400
C    2.59359700   0.00426100   1.54854400
C    2.06606700  -1.19315100   1.78499900
C    0.66305200  -1.60837100   1.63273000
C   -0.23416300  -1.11987700   0.77761400
H   -0.69581800  -0.05396800  -1.02961200
H   -0.19218300   0.96959700   0.29450700
H    2.00819200   0.85371300   1.26139000
H    3.64867700   0.17238500   1.64645300
H    2.72599600  -1.97496900   2.12028700
H    0.36441000  -2.43499400   2.25465300
H   -1.20857600  -1.57661800   0.75935000
*
