! HF 6-31G
%maxcore 1200
%pal nprocs 8 end
* xyz 0 1
C    0.03616500   0.01207800  -0.12666900
H    1.07575300   0.00476400  -0.42998500
C    2.53602000   0.02064100   1.47957000
C    2.00810400  -1.15360100   1.82008900
C    0.61305300  -1.60046500   1.69627200
C   -0.24061700  -1.15492700   0.77383700
H   -0.58096000   0.01831200  -1.01196100
H   -0.12606800   0.94775100   0.40189200
H    1.95274200   0.88618600   1.24519500
H    3.59793200   0.14225300   1.39570600
H    2.68482700  -1.93189700   2.12621400
H    0.32954900  -2.44611900   2.29961900
H   -1.17072800  -1.67702300   0.63061200
*
