! HF 6-31G
%maxcore 1200
%pal nprocs 8 end
* xyz 0 1
C   -0.02224600   0.01071800  -0.19002500
H    0.99217700   0.01975800  -0.56892700
C    2.59634000   0.00357700   1.55210000
C    2.06851000  -1.19460500   1.78374000
C    0.66520200  -1.60820700   1.63017800
C   -0.23375600  -1.11786400   0.77803800
H   -0.70069700  -0.05805400  -1.03049000
H   -0.19590700   0.97092500   0.28872600
H    2.01120100   0.85300500   1.26393000
H    3.65062900   0.17261500   1.65632400
H    2.72755500  -1.97704900   2.11962100
H    0.36615100  -2.43461700   2.25224000
H   -1.20938700  -1.57224700   0.76493400
*
