! HF 6-31G
%maxcore 1200
%pal nprocs 8 end
* xyz 0 1
C    0.01534300   0.01088000  -0.15085500
H    1.04563400   0.01199100  -0.48442400
C    2.55882100   0.01413200   1.50524600
C    2.03128600  -1.17061800   1.80433000
C    0.63311000  -1.60529400   1.67047600
C   -0.23848600  -1.14352400   0.77364800
H   -0.62740800  -0.00704400  -1.01899900
H   -0.15012900   0.95373000   0.36394100
H    1.97240700   0.87074500   1.24569400
H    3.62128600   0.15885100   1.50087600
H    2.70265500  -1.94901800   2.12318100
H    0.34130100  -2.43923800   2.28583100
H   -1.19004700  -1.63763900   0.68144700
*
