! B3LYP def-SVP 
%maxcore 1200
%pal nprocs 8 end
* xyz 0 2
C    0.61998600   0.50019300   0.19343000
C    0.70183400   0.04955100   1.50105700
H    1.55726300   0.72805300  -0.32923000
H    1.66298100  -0.05144700   2.00983800
H   -0.20012800  -0.21199200   2.06310000
C   -0.56932600   0.67168800  -0.51342100
H   -1.53707700   0.47883100  -0.03965300
H   -0.57718000   1.08875400  -1.52308700
H   -0.68011500  -1.09454700  -1.37575000
Br  -0.98736500  -2.33665000  -2.07201200
*
