! B3LYP def-SVP 
%maxcore 1200
%pal nprocs 8 end
* xyz 0 2
C    0.63799000   0.43340200   0.18673400
C    0.69566800   0.05640900   1.47948500
H    1.56937700   0.68090700  -0.33703600
H    1.64563900   0.00803600   2.01794600
H   -0.20675300  -0.22740800   2.03183100
C   -0.59138200   0.44558500  -0.61625000
H   -1.52832000   0.47743700  -0.04219200
H   -0.59649700   1.13693400  -1.47096100
H   -0.65105100  -0.60460200  -1.16047000
Br  -0.96554400  -2.22913500  -2.00335800
*
