! B3LYP def-SVP 
%maxcore 1200
%pal nprocs 8 end
* xyz 0 2
C    0.62561600   0.44391900   0.17313100
C    0.69485900   0.04403000   1.48545100
H    1.56006100   0.68458600  -0.34709800
H    1.64941600  -0.00460000   2.01574000
H   -0.20874100  -0.22630800   2.04097100
C   -0.57222900   0.54921100  -0.56061400
H   -1.53452200   0.41079200  -0.05985400
H   -0.58765800   1.05668100  -1.52720000
H   -0.67170200  -0.90987200  -1.30581000
Br  -0.96422700  -2.22600500  -2.00044600
*
