! B3LYP def-SVP 
%maxcore 1200
%pal nprocs 8 end
* xyz 0 2
C    0.61964800   0.50453400   0.19548600
C    0.70233800   0.05046800   1.50225300
H    1.55700900   0.73301500  -0.32676200
H    1.66424600  -0.05570500   2.00858500
H   -0.19920300  -0.21012500   2.06540500
C   -0.56924400   0.67949000  -0.51055800
H   -1.53745000   0.48738400  -0.03738400
H   -0.57601700   1.09462500  -1.52105900
H   -0.68046700  -1.11155100  -1.38160700
Br  -0.98998600  -2.34970200  -2.08008800
*
