! B3LYP def-SVP 
%maxcore 1200
%pal nprocs 8 end
* xyz 0 2
C    0.61914600   0.51138700   0.19878600
C    0.70314500   0.05193900   1.50416200
H    1.55666100   0.74069400  -0.32283900
H    1.66622300  -0.06218600   2.00656900
H   -0.19769100  -0.20705500   2.06912600
C   -0.56912600   0.69215000  -0.50591800
H   -1.53805300   0.50148200  -0.03361900
H   -0.57416700   1.10531300  -1.51727500
H   -0.68100700  -1.13972000  -1.39116700
Br  -0.99425700  -2.37157000  -2.09355400
*
