! B3LYP def-SVP 
%maxcore 1200
%pal nprocs 8 end
* xyz 0 2
C    0.64356800   0.42779100   0.19139600
C    0.69957100   0.06556400   1.48575000
H    1.57598900   0.67904500  -0.32938400
H    1.64740200   0.03206800   2.02933100
H   -0.20270900  -0.22211900   2.03654500
C   -0.59121900   0.43770400  -0.61881200
H   -1.51983500   0.49423700  -0.03220400
H   -0.59530400   1.16939600  -1.44022800
H   -0.65550600  -0.57896900  -1.16846600
Br  -0.99283000  -2.32715100  -2.06819900
*
