! B3LYP def-SVP 
%maxcore 1200
%pal nprocs 8 end
* xyz 0 2
C    0.62079900   0.49265300   0.18978900
C    0.70091800   0.04792800   1.49914800
H    1.55766900   0.71933500  -0.33337500
H    1.66076600  -0.04381300   2.01190000
H   -0.20163000  -0.21509900   2.05917400
C   -0.56962000   0.65820200  -0.51839600
H   -1.53642800   0.46456900  -0.04349100
H   -0.57914400   1.07992500  -1.52604400
H   -0.67950500  -1.06612500  -1.36578200
Br  -0.98295000  -2.31514000  -2.05865000
*
