! B3LYP def-SVP 
%maxcore 1200
%pal nprocs 8 end
* xyz 0 2
C    0.62665500   0.44114100   0.17300900
C    0.69427000   0.04479400   1.48394600
H    1.55960900   0.68416500  -0.34689000
H    1.64918400  -0.00363200   2.01563900
H   -0.20897300  -0.22654700   2.04049800
C   -0.57355900   0.54446700  -0.56270600
H   -1.53356800   0.41000400  -0.06070900
H   -0.58783500   1.05604700  -1.52607100
H   -0.67055600  -0.90168700  -1.30233800
Br  -0.96435400  -2.22631900  -2.00010600
*
