! B3LYP def-SVP 
%maxcore 1200
%pal nprocs 8 end
* xyz 0 2
C    0.62102600   0.48286900   0.18605200
C    0.70001800   0.04619500   1.49602000
H    1.55868100   0.70869500  -0.33849900
H    1.65809800  -0.03404900   2.01426800
H   -0.20366200  -0.21880300   2.05465100
C   -0.56933800   0.64077400  -0.52487000
H   -1.53602900   0.44777700  -0.04793100
H   -0.58151300   1.07098900  -1.52898500
H   -0.67878200  -1.03221900  -1.35359700
Br  -0.97762600  -2.28979600  -2.04283800
*
