! B3LYP def-SVP 
%maxcore 1200
%pal nprocs 8 end
* xyz 0 2
C    0.64321500   0.42855600   0.19108500
C    0.69945900   0.06477800   1.48520300
H    1.57546400   0.67941400  -0.32990300
H    1.64718000   0.02970700   2.02821600
H   -0.20315500  -0.22290700   2.03584100
C   -0.59142400   0.43846800  -0.61885600
H   -1.52066200   0.49403400  -0.03308100
H   -0.59567100   1.16716600  -1.44251200
H   -0.65463000  -0.58047800  -1.16670200
Br  -0.99065000  -2.32117100  -2.06356300
*
