! B3LYP def-SVP 
%maxcore 1200
%pal nprocs 8 end
* xyz 0 2
C    0.62075400   0.48155900   0.18610600
C    0.70003800   0.04606000   1.49535000
H    1.55906300   0.70748000  -0.33927500
H    1.65775600  -0.03284300   2.01451800
H   -0.20400300  -0.21925100   2.05416300
C   -0.56898900   0.63843100  -0.52574300
H   -1.53625100   0.44577900  -0.04830600
H   -0.58181400   1.07013600  -1.52948400
H   -0.67882200  -1.02867600  -1.35239800
Br  -0.97685900  -2.28624100  -2.04065900
*
