! B3LYP def-SVP 
%maxcore 1200
%pal nprocs 8 end
* xyz 0 2
C    0.62107400   0.48783400   0.18773600
C    0.70041400   0.04702000   1.49774300
H    1.55805000   0.71396600  -0.33590900
H    1.65940100  -0.03896600   2.01310800
H   -0.20258500  -0.21696600   2.05684500
C   -0.56960800   0.64967900  -0.52154200
H   -1.53612000   0.45605800  -0.04578300
H   -0.58034000   1.07518700  -1.52757400
H   -0.67912200  -1.04897200  -1.35964600
Br  -0.98029200  -2.30240500  -2.05070800
*
