! B3LYP def-SVP 
%maxcore 1200
%pal nprocs 8 end
* xyz 0 2
C    0.62135400   0.48458300   0.18630200
C    0.70004700   0.04637800   1.49685700
H    1.55829300   0.71036500  -0.33755300
H    1.65849800  -0.03565400   2.01387500
H   -0.20321200  -0.21818700   2.05530300
C   -0.56968000   0.64375800  -0.52374900
H   -1.53592300   0.45046600  -0.04731300
H   -0.58111800   1.07227100  -1.52848700
H   -0.67885600  -1.03750900  -1.35548800
Br  -0.97853000  -2.29403900  -2.04547600
*
