! B3LYP def-SVP 
%maxcore 1200
%pal nprocs 8 end
* xyz 0 2
C    0.61932800   0.50871000   0.19749800
C    0.70282800   0.05136500   1.50340400
H    1.55679100   0.73773100  -0.32437100
H    1.66545700  -0.05969700   2.00735800
H   -0.19828900  -0.20827200   2.06766800
C   -0.56916300   0.68714600  -0.50774700
H   -1.53781900   0.49589300  -0.03511900
H   -0.57488900   1.10092100  -1.51884400
H   -0.68079900  -1.12851900  -1.38738600
Br  -0.99257200  -2.36284200  -2.08819000
*
