! B3LYP def-SVP 
%maxcore 1200
%pal nprocs 8 end
* xyz 0 2
C    0.61939200   0.51014000   0.19805900
C    0.70294400   0.05161200   1.50392500
H    1.55665600   0.73925100  -0.32354000
H    1.66584500  -0.06098500   2.00693500
H   -0.19793900  -0.20763500   2.06839600
C   -0.56927200   0.68971500  -0.50681400
H   -1.53790100   0.49877400  -0.03437000
H   -0.57450600   1.10315300  -1.51804500
H   -0.68090600  -1.13427000  -1.38933000
Br  -0.99344000  -2.36732100  -2.09094400
*
