! B3LYP def-SVP 
%maxcore 1200
%pal nprocs 8 end
* xyz 0 2
C    0.61979600   0.50309700   0.19477000
C    0.70215900   0.05014400   1.50190000
H    1.55708200   0.73136200  -0.32758300
H    1.66382000  -0.05429300   2.00900100
H   -0.19950200  -0.21075000   2.06462200
C   -0.56931000   0.67687300  -0.51152500
H   -1.53731500   0.48450300  -0.03815400
H   -0.57640400   1.09259600  -1.52176200
H   -0.68034900  -1.10581200  -1.37963800
Br  -0.98910400  -2.34528600  -2.07735900
*
