! B3LYP def-SVP 
%maxcore 1200
%pal nprocs 8 end
* xyz 0 2
C    0.63930800   0.43229100   0.18787600
C    0.69663600   0.05848600   1.48080300
H    1.57121300   0.68067000  -0.33512400
H    1.64603500   0.01283300   2.02013000
H   -0.20588800  -0.22679200   2.03195100
C   -0.59163400   0.44347600  -0.61702600
H   -1.52701800   0.48391400  -0.04052500
H   -0.59734900   1.14547400  -1.46337800
H   -0.64978200  -0.59487700  -1.15809800
Br  -0.97239300  -2.25790600  -2.02088100
*
