! B3LYP def-SVP 
%maxcore 1200
%pal nprocs 8 end
* xyz 0 2
C    0.63682700   0.43610600   0.18500100
C    0.69516500   0.05331900   1.48019300
H    1.56818500   0.68073600  -0.33884000
H    1.64544200   0.00517800   2.01647400
H   -0.20764800  -0.22759300   2.03208200
C   -0.58996600   0.45296200  -0.61219500
H   -1.53005900   0.47190100  -0.04196400
H   -0.59503500   1.13152600  -1.47774300
H   -0.65357800  -0.62107900  -1.16801100
Br  -0.96020700  -2.20548900  -1.98926700
*
