! B3LYP def-SVP 
%maxcore 1200
%pal nprocs 8 end
* xyz 0 2
C    0.63911100   0.43258400   0.18754900
C    0.69603800   0.05757700   1.47977100
H    1.57006900   0.68079200  -0.33601400
H    1.64580300   0.01026500   2.01891900
H   -0.20632300  -0.22716700   2.03182800
C   -0.59187600   0.44451000  -0.61691400
H   -1.52761200   0.48062800  -0.04164800
H   -0.59704100   1.14080900  -1.46713900
H   -0.65015800  -0.59898500  -1.15863300
Br  -0.96888400  -2.24344600  -2.01199200
*
