! B3LYP def-SVP 
%maxcore 1200
%pal nprocs 8 end
* xyz 0 2
C    0.64078300   0.43203300   0.18871500
C    0.69709800   0.05962300   1.48149800
H    1.57182000   0.68042800  -0.33394500
H    1.64633500   0.01566100   2.02153000
H   -0.20541900  -0.22632800   2.03234800
C   -0.59231400   0.44276500  -0.61774700
H   -1.52591200   0.48694000  -0.03927400
H   -0.59735200   1.15000700  -1.45910200
H   -0.64994600  -0.59164700  -1.15857400
Br  -0.97596600  -2.27191700  -2.02971800
*
