! B3LYP def-SVP 
%maxcore 1200
%pal nprocs 8 end
* xyz 0 2
C    0.62055300   0.49415600   0.19057200
C    0.70112400   0.04827400   1.49946800
H    1.55761500   0.72109900  -0.33257400
H    1.66121600  -0.04537200   2.01150500
H   -0.20135200  -0.21449100   2.05996300
C   -0.56949800   0.66093200  -0.51738300
H   -1.53657300   0.46737900  -0.04271900
H   -0.57876000   1.08157700  -1.52550600
H   -0.67962800  -1.07175500  -1.36777600
Br  -0.98382500  -2.31936400  -2.06127900
*
