! B3LYP def-SVP 
%maxcore 1200
%pal nprocs 8 end
* xyz 0 2
C    0.62339700   0.45847000   0.17634800
C    0.69715800   0.04327000   1.48977800
H    1.55966500   0.68975400  -0.34568600
H    1.65212600  -0.01320600   2.01660000
H   -0.20709200  -0.22474300   2.04534800
C   -0.57021900   0.59063300  -0.54387000
H   -1.53483200   0.41866600  -0.05699800
H   -0.58590200   1.05855900  -1.53021500
H   -0.67573300  -0.95575400  -1.32413700
Br  -0.96769500  -2.24321500  -2.01289600
*
