! B3LYP def-SVP 
%maxcore 1200
%pal nprocs 8 end
* xyz 0 2
C    0.62080300   0.49103000   0.18916200
C    0.70077400   0.04765000   1.49861000
H    1.55783100   0.71755300  -0.33424900
H    1.66031600  -0.04221000   2.01231800
H   -0.20197100  -0.21573300   2.05840500
C   -0.56954800   0.65539200  -0.51942700
H   -1.53634200   0.46170200  -0.04424700
H   -0.57955100   1.07829000  -1.52658200
H   -0.67937900  -1.06038400  -1.36373800
Br  -0.98205900  -2.31085500  -2.05598000
*
