! B3LYP def-SVP 
%maxcore 1200
%pal nprocs 8 end
* xyz 0 2
C    0.61972000   0.50601900   0.19605200
C    0.70245400   0.05071700   1.50280400
H    1.55685500   0.73462200  -0.32589900
H    1.66465100  -0.05708100   2.00814800
H   -0.19884300  -0.20948100   2.06614600
C   -0.56936500   0.68209300  -0.50961300
H   -1.53753200   0.49028100  -0.03664000
H   -0.57561900   1.09670900  -1.52032500
H   -0.68058100  -1.11730100  -1.38357200
Br  -0.99086700  -2.35414400  -2.08283000
*
