! B3LYP def-SVP 
%maxcore 1200
%pal nprocs 8 end
* xyz 0 2
C    0.62153900   0.48015600   0.18627200
C    0.69987400   0.04548500   1.49555800
H    1.55933900   0.70594700  -0.34025600
H    1.65693900  -0.03126800   2.01445000
H   -0.20400600  -0.21965100   2.05326600
C   -0.56894600   0.63495300  -0.52692500
H   -1.53692600   0.44332200  -0.04855000
H   -0.58217500   1.06948200  -1.53074700
H   -0.67932100  -1.02613000  -1.35191700
Br  -0.97544300  -2.27986100  -2.03688100
*
