! B3LYP def-SVP 
%maxcore 1200
%pal nprocs 8 end
* xyz 0 2
C    0.62419600   0.45182600   0.17452400
C    0.69605300   0.04277700   1.48822700
H    1.56049900   0.68639500  -0.34703200
H    1.65086900  -0.00824900   2.01642500
H   -0.20813100  -0.22565600   2.04298500
C   -0.57069200   0.56791900  -0.55314800
H   -1.53556400   0.41385300  -0.05810000
H   -0.58689700   1.05784100  -1.52954900
H   -0.67463000  -0.93472800  -1.31608000
Br  -0.96482900  -2.22954300  -2.00398200
*
