! B3LYP def-SVP 
%maxcore 1200
%pal nprocs 8 end
* xyz 0 2
C    0.64184700   0.43069900   0.18994200
C    0.69836600   0.06216200   1.48336900
H    1.57375400   0.68013700  -0.33186700
H    1.64675800   0.02225400   2.02474300
H   -0.20432000  -0.22494200   2.03372900
C   -0.59193200   0.44061400  -0.61842000
H   -1.52343000   0.49175700  -0.03618600
H   -0.59679500   1.15921900  -1.45062100
H   -0.65175700  -0.58577400  -1.16165100
Br  -0.98336300  -2.29856000  -2.04730900
*
