! B3LYP def-SVP 
%maxcore 1200
%pal nprocs 8 end
* xyz 0 2
C    0.62963900   0.43752700   0.17681500
C    0.69430000   0.04855200   1.48141200
H    1.56342000   0.68196900  -0.34320200
H    1.64652800   0.00077600   2.01517400
H   -0.20859100  -0.22716800   2.03554700
C   -0.57880500   0.49302000  -0.58747700
H   -1.53333600   0.43879500  -0.05080000
H   -0.59108900   1.09282000  -1.50384700
H   -0.66550900  -0.77670300  -1.24408300
Br  -0.95655700  -2.18958800  -1.97953900
*
