! B3LYP def-SVP 
%maxcore 1200
%pal nprocs 8 end
* xyz 0 2
C    0.62289300   0.46664200   0.17987800
C    0.69809300   0.04345000   1.49190500
H    1.55987200   0.69433900  -0.34455100
H    1.65402000  -0.01898500   2.01639000
H   -0.20631300  -0.22333800   2.04803200
C   -0.56999500   0.60775400  -0.53743300
H   -1.53573300   0.42572200  -0.05416200
H   -0.58464100   1.06158800  -1.53133900
H   -0.67749900  -0.98136600  -1.33456500
Br  -0.96982300  -2.25337200  -2.01988500
*
