! B3LYP def-SVP 
%maxcore 1200
%pal nprocs 8 end
* xyz 0 2
C    0.63435100   0.43670900   0.18270700
C    0.69424800   0.05053100   1.47871900
H    1.56659200   0.68032500  -0.34007300
H    1.64528600   0.00411000   2.01547600
H   -0.20848700  -0.22774100   2.03248000
C   -0.58485600   0.47192600  -0.60037000
H   -1.53149000   0.46628300  -0.04210400
H   -0.59384400   1.12630400  -1.48324800
H   -0.65619400  -0.64180400  -1.17857600
Br  -0.95647900  -2.18907700  -1.97928200
*
