! B3LYP def-SVP 
%maxcore 1200
%pal nprocs 8 end
* xyz 0 2
C    0.62017000   0.49871400   0.19268500
C    0.70164600   0.04921500   1.50071000
H    1.55733300   0.72632700  -0.33006000
H    1.66254000  -0.04995500   2.01025400
H   -0.20042400  -0.21261700   2.06230500
C   -0.56941000   0.66901800  -0.51440900
H   -1.53693900   0.47594900  -0.04042600
H   -0.57757200   1.08687800  -1.52372700
H   -0.67999400  -1.08881700  -1.37375800
Br  -0.98647600  -2.33227900  -2.06930200
*
