! B3LYP def-SVP 
%maxcore 1200
%pal nprocs 8 end
* xyz 0 2
C    0.64418700   0.42700400   0.19165400
C    0.69966400   0.06636100   1.48645600
H    1.57642900   0.67854900  -0.32882500
H    1.64761300   0.03458300   2.03047100
H   -0.20222900  -0.22122100   2.03731900
C   -0.59115300   0.43699300  -0.61889400
H   -1.51897800   0.49425300  -0.03131400
H   -0.59492000   1.17158500  -1.43778800
H   -0.65637000  -0.57745100  -1.17039100
Br  -0.99511600  -2.33308900  -2.07295900
*
