! B3LYP def-SVP 
%maxcore 1200
%pal nprocs 8 end
* xyz 0 2
C    0.62007300   0.50173300   0.19399600
C    0.70194800   0.04979900   1.50163600
H    1.55708800   0.72973200  -0.32834300
H    1.66340300  -0.05290600   2.00939400
H   -0.19976200  -0.21134500   2.06384900
C   -0.56946100   0.67433700  -0.51245900
H   -1.53715500   0.48173400  -0.03891200
H   -0.57677100   1.09069000  -1.52241600
H   -0.68023600  -1.10029300  -1.37773800
Br  -0.98825300  -2.34104800  -2.07473600
*
