! B3LYP def-SVP 
%maxcore 1200
%pal nprocs 8 end
* xyz 0 2
C    0.64283700   0.42904000   0.19126600
C    0.69859500   0.06419500   1.48415100
H    1.57511900   0.67970200  -0.33044100
H    1.64742300   0.02772900   2.02751600
H   -0.20329300  -0.22346000   2.03518700
C   -0.59159500   0.43891400  -0.61853800
H   -1.52128900   0.49372300  -0.03390500
H   -0.59598700   1.16537800  -1.44464600
H   -0.65387100  -0.58177800  -1.16528100
Br  -0.98881000  -2.31587600  -2.05957900
*
