! B3LYP def-SVP 
%maxcore 1200
%pal nprocs 8 end
* xyz 0 2
C    0.62106000   0.48949000   0.18836400
C    0.70056400   0.04729800   1.49829100
H    1.55788400   0.71576200  -0.33504500
H    1.65985500  -0.04060500   2.01270000
H   -0.20224600  -0.21633800   2.05761000
C   -0.56967300   0.65257300  -0.52047200
H   -1.53620200   0.45890000  -0.04502500
H   -0.57993600   1.07672700  -1.52708200
H   -0.67925300  -1.05472200  -1.36171300
Br  -0.98118100  -2.30665100  -2.05335800
*
