! B3LYP def-SVP 
%maxcore 1200
%pal nprocs 8 end
* xyz 0 2
C    0.62492700   0.43834600   0.17092200
C    0.69435100   0.04657300   1.48410500
H    1.56024800   0.68361300  -0.34633100
H    1.64777000  -0.00255700   2.01487200
H   -0.20869500  -0.22659500   2.03861400
C   -0.57275300   0.51411400  -0.57458400
H   -1.53518200   0.41130600  -0.05949600
H   -0.58833400   1.05933600  -1.52444600
H   -0.67482400  -0.91160300  -1.30959000
Br  -0.95663400  -2.19010000  -1.97979500
*
