! B3LYP def-SVP 
%maxcore 1200
%pal nprocs 8 end
* xyz 0 2
C    0.63572700   0.43705600   0.18334500
C    0.69516000   0.05202900   1.48157700
H    1.56808600   0.68067600  -0.33937100
H    1.64518700   0.00467000   2.01599300
H   -0.20772400  -0.22754100   2.03199800
C   -0.58856600   0.45610700  -0.60971100
H   -1.53079500   0.47045900  -0.04171300
H   -0.59464200   1.13049000  -1.47977200
H   -0.65435800  -0.62650700  -1.17070100
Br  -0.95894900  -2.19987300  -1.98591600
*
