! B3LYP def-SVP 
%maxcore 1200
%pal nprocs 8 end
* xyz 0 2
C    0.64045400   0.43138000   0.18932800
C    0.69762800   0.06088200   1.48231200
H    1.57315500   0.68038400  -0.33307200
H    1.64666300   0.01880800   2.02317500
H   -0.20482100  -0.22569000   2.03287900
C   -0.59156400   0.44144800  -0.61766600
H   -1.52486500   0.48967500  -0.03771600
H   -0.59721700   1.15493900  -1.45508900
H   -0.65064000  -0.58858200  -1.15977800
Br  -0.97966500  -2.28567800  -2.03864500
*
