! B3LYP def-SVP 
%maxcore 1200
%pal nprocs 8 end
* xyz 0 2
C    0.62132800   0.48625800   0.18693500
C    0.70020000   0.04666500   1.49741200
H    1.55811600   0.71216300  -0.33669800
H    1.65893800  -0.03732300   2.01347700
H   -0.20286000  -0.21756500   2.05605500
C   -0.56972700   0.64675400  -0.52262900
H   -1.53599400   0.45327500  -0.04656000
H   -0.58072200   1.07371500  -1.52803600
H   -0.67899200  -1.04327700  -1.35758600
Br  -0.97941400  -2.29823200  -2.04810000
*
