! B3LYP def-SVP 
%maxcore 1200
%pal nprocs 8 end
* xyz 0 2
C    0.61945800   0.50732300   0.19680200
C    0.70265900   0.05105200   1.50305500
H    1.55685300   0.73616200  -0.32516500
H    1.66505200  -0.05837500   2.00776700
H   -0.19858700  -0.20889400   2.06690200
C   -0.56921900   0.68457000  -0.50870200
H   -1.53768800   0.49302100  -0.03588900
H   -0.57526300   1.09874300  -1.51961200
H   -0.68068900  -1.12277900  -1.38543800
Br  -0.99170200  -2.35838900  -2.08544800
*
