! B3LYP def-SVP 
%maxcore 1200
%pal nprocs 8 end
* xyz 0 2
C    0.63761100   0.43454200   0.18681100
C    0.69530600   0.05518400   1.47878800
H    1.56871000   0.68087300  -0.33803000
H    1.64569600   0.00628900   2.01724100
H   -0.20735000  -0.22759000   2.03206500
C   -0.59116300   0.44841100  -0.61510000
H   -1.52908100   0.47445500  -0.04222900
H   -0.59575300   1.13374200  -1.47447600
H   -0.65229000  -0.61236000  -1.16382600
Br  -0.96255900  -2.21598100  -1.99551500
*
