! B3LYP def-SVP 
%maxcore 1200
%pal nprocs 8 end
* xyz 0 2
C    0.64241500   0.42955100   0.19070800
C    0.69811400   0.06361500   1.48393800
H    1.57479900   0.67987200  -0.33079300
H    1.64748200   0.02624600   2.02691200
H   -0.20340800  -0.22385700   2.03468800
C   -0.59152900   0.43920100  -0.61810400
H   -1.52181500   0.49342200  -0.03454100
H   -0.59623100   1.16402800  -1.44632700
H   -0.65328900  -0.58278100  -1.16423500
Br  -0.98741200  -2.31173100  -2.05651600
*
