! B3LYP def-SVP 
%maxcore 1200
%pal nprocs 8 end
* xyz 0 2
C    0.62042900   0.49727600   0.19191000
C    0.70143800   0.04887100   1.50040900
H    1.55736100   0.72461800  -0.33084800
H    1.66210500  -0.04847400   2.01065400
H   -0.20069600  -0.21322100   2.06152000
C   -0.56954100   0.66639300  -0.51537500
H   -1.53678600   0.47314800  -0.04119400
H   -0.57795300   1.08509600  -1.52432600
H   -0.67987400  -1.08323400  -1.37180900
Br  -0.98561000  -2.32803800  -2.06667000
*
