! B3LYP def-SVP 
%maxcore 1200
%pal nprocs 8 end
* xyz 0 2
C    0.62150700   0.47345900   0.18163900
C    0.69891200   0.04484800   1.49322100
H    1.55891300   0.69989100  -0.34190500
H    1.65582300  -0.02533500   2.01598500
H   -0.20514900  -0.22168100   2.05080600
C   -0.56958400   0.62464200  -0.53098900
H   -1.53488900   0.43428900  -0.05225000
H   -0.58341300   1.06424000  -1.52977800
H   -0.67747100  -1.00029000  -1.34131100
Br  -0.97377500  -2.27162900  -2.03114600
*
