! B3LYP def-SVP 
%maxcore 1200
%pal nprocs 8 end
* xyz 0 2
C    0.62035100   0.49568600   0.19133400
C    0.70132000   0.04861500   1.49982300
H    1.55754300   0.72288100  -0.33174400
H    1.66167200  -0.04694100   2.01109700
H   -0.20105900  -0.21386700   2.06076500
C   -0.56941200   0.66368200  -0.51636600
H   -1.53670900   0.47025300  -0.04194000
H   -0.57836500   1.08330700  -1.52493200
H   -0.67975100  -1.07749300  -1.36979700
Br  -0.98471800  -2.32369100  -2.06397000
*
